(set-logic LIA)

(declare-const x Int)
(declare-const x! Int)
(declare-const tmp Int)
(declare-const tmp! Int)
(declare-const sn Int)
(declare-const sn! Int)

(declare-const x_29 Int)
(declare-const x_21 Int)
(declare-const x_19 Int)
(declare-const sn_27 Int)
(declare-const sn_22 Int)
(declare-const sn_18 Int)

(define-fun inv-f((sn Int)(tmp Int)(x Int)) Bool
